res/heu/pdp_100_mem_1.0/1.0_1.0/lrc105.txt
Vehicle 0
0 40 94 44 98 43 97 109 

Vehicle 1
0 45 99 9 8 62 7 63 61 109 

Vehicle 2
0 17 16 15 69 71 19 18 72 70 73 109 

Vehicle 3
0 24 22 27 23 78 76 21 75 77 81 109 

Vehicle 4
0 26 80 6 4 60 3 57 58 1 55 109 

Vehicle 6
0 35 34 39 88 89 93 48 102 109 

Vehicle 7
0 37 46 13 100 91 67 30 84 109 

Vehicle 8
0 49 103 38 92 50 104 109 

Vehicle 9
0 51 52 36 54 90 105 106 108 109 

Vehicle 10
0 2 28 56 5 82 32 86 59 109 

Vehicle 11
0 42 41 95 25 31 79 96 85 109 

Vehicle 15
0 20 74 12 29 83 66 14 68 109 

Vehicle 16
0 53 107 11 65 10 47 33 64 101 87 109 

Vehicle used: 13
Total Distance Traveled: 1637.624391370094
Total Penalty of Delay: 0.0
Time Elasped: 5448
Vehicle 0 with capacity 200
			Node 0
		Load 0.0
		Time 0.0
		Delay 0.0
			Membership 1
			Time Window [0, 240]
			Load at node 0
			Service time at node 0
			Location (40, 50)
	Distance between 9.219544457292887
			Node 40
		Load 27.0
		Time 51.0
		Delay 0.0
			Membership 1
			Time Window [51, 61]
			Load at node 27
			Service time at node 10
			Location (31, 52)
	Distance between 9.219544457292887
			Node 94
		Load 0.0
		Time 70.21954445729288
		Delay 0.0
			Membership 1
			Time Window [67, 96]
			Load at node -27
			Service time at node 10
			Location (24, 58)
	Distance between 16.1245154965971
			Node 44
		Load 27.0
		Time 96.34405995388998
		Delay 0.0
			Membership 1
			Time Window [90, 119]
			Load at node 27
			Service time at node 0
			Location (8, 56)
	Distance between 0.0
			Node 98
		Load 0.0
		Time 96.34405995388998
		Delay 0.0
			Membership 1
			Time Window [90, 119]
			Load at node -27
			Service time at node 10
			Location (8, 56)
	Distance between 7.211102550927978
			Node 43
		Load 5.0
		Time 113.55516250481796
		Delay 0.0
			Membership 1
			Time Window [65, 118]
			Load at node 5
			Service time at node 10
			Location (2, 60)
	Distance between 13.0
			Node 97
		Load 0.0
		Time 137.0
		Delay 0.0
			Membership 1
			Time Window [137, 202]
			Load at node -5
			Service time at node 10
			Location (15, 60)
	Distance between 26.92582403567252
			Node 109
		Load 0.0
		Time 173.92582403567252
		Delay 0.0
			Membership 1
			Time Window [0, 240]
			Load at node 0
			Service time at node 0
			Location (40, 50)

Vehicle 1 with capacity 200
			Node 0
		Load 0.0
		Time 0.0
		Delay 0.0
			Membership 1
			Time Window [0, 240]
			Load at node 0
			Service time at node 0
			Location (40, 50)
	Distance between 14.7648230602334
			Node 45
		Load 9.0
		Time 14.7648230602334
		Delay 0.0
			Membership 1
			Time Window [14, 134]
			Load at node 9
			Service time at node 10
			Location (27, 43)
	Distance between 19.1049731745428
			Node 99
		Load 0.0
		Time 43.8697962347762
		Delay 0.0
			Membership 1
			Time Window [32, 152]
			Load at node -9
			Service time at node 10
			Location (8, 45)
	Distance between 3.0
			Node 9
		Load 10.0
		Time 56.8697962347762
		Delay 0.0
			Membership 1
			Time Window [35, 117]
			Load at node 10
			Service time at node 10
			Location (5, 45)
	Distance between 5.830951894845301
			Node 8
		Load 50.0
		Time 72.7007481296215
		Delay 0.0
			Membership 1
			Time Window [69, 79]
			Load at node 40
			Service time at node 10
			Location (8, 40)
	Distance between 5.385164807134504
			Node 62
		Load 10.0
		Time 101.0
		Delay 0.0
			Membership 1
			Time Window [101, 111]
			Load at node -40
			Service time at node 10
			Location (10, 35)
	Distance between 5.0
			Node 7
		Load 40.0
		Time 123.0
		Delay 0.0
			Membership 1
			Time Window [123, 144]
			Load at node 30
			Service time at node 10
			Location (10, 40)
	Distance between 7.0710678118654755
			Node 63
		Load 30.0
		Time 152.0
		Delay 0.0
			Membership 1
			Time Window [152, 162]
			Load at node -10
			Service time at node 10
			Location (5, 35)
	Distance between 11.180339887498949
			Node 61
		Load 0.0
		Time 173.18033988749895
		Delay 0.0
			Membership 1
			Time Window [147, 180]
			Load at node -30
			Service time at node 10
			Location (0, 45)
	Distance between 40.311288741492746
			Node 109
		Load 0.0
		Time 223.4916286289917
		Delay 0.0
			Membership 1
			Time Window [0, 240]
			Load at node 0
			Service time at node 0
			Location (40, 50)

Vehicle 2 with capacity 200
			Node 0
		Load 0.0
		Time 0.0
		Delay 0.0
			Membership 1
			Time Window [0, 240]
			Load at node 0
			Service time at node 0
			Location (40, 50)
	Distance between 52.20153254455275
			Node 17
		Load 10.0
		Time 52.20153254455275
		Delay 0.0
			Membership 1
			Time Window [52, 112]
			Load at node 10
			Service time at node 10
			Location (90, 35)
	Distance between 5.0
			Node 16
		Load 30.0
		Time 67.20153254455275
		Delay 0.0
			Membership 1
			Time Window [60, 93]
			Load at node 20
			Service time at node 10
			Location (95, 35)
	Distance between 5.0
			Node 15
		Load 60.0
		Time 82.20153254455275
		Delay 0.0
			Membership 1
			Time Window [58, 171]
			Load at node 30
			Service time at node 10
			Location (95, 30)
	Distance between 7.0
			Node 69
		Load 30.0
		Time 99.20153254455275
		Delay 0.0
			Membership 1
			Time Window [75, 102]
			Load at node -30
			Service time at node 10
			Location (88, 30)
	Distance between 4.0
			Node 71
		Load 20.0
		Time 113.20153254455275
		Delay 0.0
			Membership 1
			Time Window [55, 120]
			Load at node -10
			Service time at node 10
			Location (92, 30)
	Distance between 5.0
			Node 19
		Load 30.0
		Time 128.20153254455275
		Delay 0.0
			Membership 1
			Time Window [116, 175]
			Load at node 10
			Service time at node 10
			Location (87, 30)
	Distance between 5.0990195135927845
			Node 18
		Load 50.0
		Time 143.30055205814554
		Delay 0.0
			Membership 1
			Time Window [50, 170]
			Load at node 20
			Service time at node 10
			Location (88, 35)
	Distance between 3.0
			Node 72
		Load 30.0
		Time 156.30055205814554
		Delay 0.0
			Membership 1
			Time Window [62, 182]
			Load at node -20
			Service time at node 10
			Location (85, 35)
	Distance between 13.0
			Node 70
		Load 10.0
		Time 179.30055205814554
		Delay 0.0
			Membership 1
			Time Window [71, 191]
			Load at node -20
			Service time at node 10
			Location (72, 35)
	Distance between 27.730849247724095
			Node 73
		Load 0.0
		Time 217.03140130586962
		Delay 0.0
			Membership 1
			Time Window [190, 222]
			Load at node -10
			Service time at node 10
			Location (47, 47)
	Distance between 7.615773105863909
			Node 109
		Load 0.0
		Time 234.64717441173354
		Delay 0.0
			Membership 1
			Time Window [0, 240]
			Load at node 0
			Service time at node 0
			Location (40, 50)

Vehicle 3 with capacity 200
			Node 0
		Load 0.0
		Time 0.0
		Delay 0.0
			Membership 1
			Time Window [0, 240]
			Load at node 0
			Service time at node 0
			Location (40, 50)
	Distance between 36.05551275463989
			Node 24
		Load 10.0
		Time 36.05551275463989
		Delay 0.0
			Membership 1
			Time Window [36, 74]
			Load at node 10
			Service time at node 10
			Location (60, 80)
	Distance between 7.0710678118654755
			Node 22
		Load 50.0
		Time 53.12658056650537
		Delay 0.0
			Membership 1
			Time Window [43, 78]
			Load at node 40
			Service time at node 10
			Location (65, 85)
	Distance between 10.44030650891055
			Node 27
		Load 60.0
		Time 74.0
		Delay 0.0
			Membership 1
			Time Window [74, 84]
			Load at node 10
			Service time at node 10
			Location (55, 82)
	Distance between 7.280109889280518
			Node 23
		Load 90.0
		Time 91.28010988928051
		Delay 0.0
			Membership 1
			Time Window [85, 95]
			Load at node 30
			Service time at node 10
			Location (62, 80)
	Distance between 5.385164807134504
			Node 78
		Load 80.0
		Time 106.66527469641501
		Delay 0.0
			Membership 1
			Time Window [87, 112]
			Load at node -10
			Service time at node 10
			Location (60, 85)
	Distance between 5.830951894845301
			Node 76
		Load 40.0
		Time 122.49622659126031
		Delay 0.0
			Membership 1
			Time Window [69, 189]
			Load at node -40
			Service time at node 10
			Location (65, 82)
	Distance between 3.605551275463989
			Node 21
		Load 60.0
		Time 138.0
		Delay 0.0
			Membership 1
			Time Window [138, 169]
			Load at node 20
			Service time at node 0
			Location (67, 85)
	Distance between 0.0
			Node 75
		Load 40.0
		Time 138.0
		Delay 0.0
			Membership 1
			Time Window [138, 169]
			Load at node -20
			Service time at node 10
			Location (67, 85)
	Distance between 12.0
			Node 77
		Load 10.0
		Time 160.0
		Delay 0.0
			Membership 1
			Time Window [117, 168]
			Load at node -30
			Service time at node 10
			Location (55, 85)
	Distance between 25.612496949731394
			Node 81
		Load 0.0
		Time 195.6124969497314
		Delay 0.0
			Membership 1
			Time Window [172, 210]
			Load at node -10
			Service time at node 10
			Location (35, 69)
	Distance between 19.6468827043885
			Node 109
		Load 0.0
		Time 225.2593796541199
		Delay 0.0
			Membership 1
			Time Window [0, 240]
			Load at node 0
			Service time at node 0
			Location (40, 50)

Vehicle 4 with capacity 200
			Node 0
		Load 0.0
		Time 0.0
		Delay 0.0
			Membership 1
			Time Window [0, 240]
			Load at node 0
			Service time at node 0
			Location (40, 50)
	Distance between 33.54101966249684
			Node 26
		Load 10.0
		Time 33.54101966249684
		Delay 0.0
			Membership 1
			Time Window [33, 66]
			Load at node 10
			Service time at node 10
			Location (55, 80)
	Distance between 18.027756377319946
			Node 80
		Load 0.0
		Time 61.56877603981679
		Delay 0.0
			Membership 1
			Time Window [55, 106]
			Load at node -10
			Service time at node 10
			Location (45, 65)
	Distance between 33.54101966249684
			Node 6
		Load 10.0
		Time 105.10979570231363
		Delay 0.0
			Membership 1
			Time Window [101, 111]
			Load at node 10
			Service time at node 10
			Location (15, 80)
	Distance between 5.830951894845301
			Node 4
		Load 30.0
		Time 120.94074759715893
		Delay 0.0
			Membership 1
			Time Window [96, 123]
			Load at node 20
			Service time at node 10
			Location (18, 75)
	Distance between 5.0
			Node 60
		Load 20.0
		Time 135.94074759715892
		Delay 0.0
			Membership 1
			Time Window [98, 157]
			Load at node -10
			Service time at node 10
			Location (18, 80)
	Distance between 2.0
			Node 3
		Load 60.0
		Time 151.0
		Delay 0.0
			Membership 1
			Time Window [151, 161]
			Load at node 40
			Service time at node 0
			Location (20, 80)
	Distance between 0.0
			Node 57
		Load 20.0
		Time 151.0
		Delay 0.0
			Membership 1
			Time Window [151, 161]
			Load at node -40
			Service time at node 10
			Location (20, 80)
	Distance between 5.385164807134504
			Node 58
		Load 0.0
		Time 166.38516480713452
		Delay 0.0
			Membership 1
			Time Window [64, 184]
			Load at node -20
			Service time at node 10
			Location (22, 85)
	Distance between 3.0
			Node 1
		Load 20.0
		Time 179.38516480713452
		Delay 0.0
			Membership 1
			Time Window [71, 191]
			Load at node 20
			Service time at node 10
			Location (25, 85)
	Distance between 18.973665961010276
			Node 55
		Load 0.0
		Time 208.3588307681448
		Delay 0.0
			Membership 1
			Time Window [200, 210]
			Load at node -20
			Service time at node 10
			Location (31, 67)
	Distance between 19.235384061671343
			Node 109
		Load 0.0
		Time 237.59421482981614
		Delay 0.0
			Membership 1
			Time Window [0, 240]
			Load at node 0
			Service time at node 0
			Location (40, 50)

Vehicle 6 with capacity 200
			Node 0
		Load 0.0
		Time 0.0
		Delay 0.0
			Membership 1
			Time Window [0, 240]
			Load at node 0
			Service time at node 0
			Location (40, 50)
	Distance between 39.05124837953327
			Node 35
		Load 6.0
		Time 39.05124837953327
		Delay 0.0
			Membership 1
			Time Window [39, 108]
			Load at node 6
			Service time at node 10
			Location (65, 20)
	Distance between 15.0
			Node 34
		Load 9.0
		Time 64.05124837953326
		Delay 0.0
			Membership 1
			Time Window [62, 72]
			Load at node 3
			Service time at node 10
			Location (65, 35)
	Distance between 7.0710678118654755
			Node 39
		Load 18.0
		Time 81.12231619139874
		Delay 0.0
			Membership 1
			Time Window [80, 90]
			Load at node 9
			Service time at node 10
			Location (64, 42)
	Distance between 14.7648230602334
			Node 88
		Load 15.0
		Time 106.0
		Delay 0.0
			Membership 1
			Time Window [106, 116]
			Load at node -3
			Service time at node 10
			Location (57, 29)
	Distance between 9.219544457292887
			Node 89
		Load 9.0
		Time 125.21954445729288
		Delay 0.0
			Membership 1
			Time Window [69, 126]
			Load at node -6
			Service time at node 10
			Location (55, 20)
	Distance between 8.54400374531753
			Node 93
		Load 0.0
		Time 143.76354820261042
		Delay 0.0
			Membership 1
			Time Window [42, 162]
			Load at node -9
			Service time at node 10
			Location (63, 23)
	Distance between 18.439088914585774
			Node 48
		Load 25.0
		Time 172.2026371171962
		Delay 0.0
			Membership 1
			Time Window [105, 177]
			Load at node 25
			Service time at node 0
			Location (67, 5)
	Distance between 0.0
			Node 102
		Load 0.0
		Time 172.2026371171962
		Delay 0.0
			Membership 1
			Time Window [105, 177]
			Load at node -25
			Service time at node 10
			Location (67, 5)
	Distance between 52.478567053607705
			Node 109
		Load 0.0
		Time 234.68120417080388
		Delay 0.0
			Membership 1
			Time Window [0, 240]
			Load at node 0
			Service time at node 0
			Location (40, 50)

Vehicle 7 with capacity 200
			Node 0
		Load 0.0
		Time 0.0
		Delay 0.0
			Membership 1
			Time Window [0, 240]
			Load at node 0
			Service time at node 0
			Location (40, 50)
	Distance between 11.180339887498949
			Node 37
		Load 16.0
		Time 11.180339887498949
		Delay 0.0
			Membership 1
			Time Window [11, 43]
			Load at node 16
			Service time at node 10
			Location (35, 40)
	Distance between 9.219544457292887
			Node 46
		Load 30.0
		Time 30.399884344791836
		Delay 0.0
			Membership 1
			Time Window [19, 139]
			Load at node 14
			Service time at node 10
			Location (37, 31)
	Distance between 21.587033144922902
			Node 13
		Load 70.0
		Time 61.98691748971474
		Delay 0.0
			Membership 1
			Time Window [58, 115]
			Load at node 40
			Service time at node 10
			Location (42, 10)
	Distance between 6.4031242374328485
			Node 100
		Load 56.0
		Time 78.39004172714759
		Delay 0.0
			Membership 1
			Time Window [75, 85]
			Load at node -14
			Service time at node 10
			Location (38, 5)
	Distance between 10.198039027185569
			Node 91
		Load 40.0
		Time 98.58808075433316
		Delay 0.0
			Membership 1
			Time Window [94, 119]
			Load at node -16
			Service time at node 10
			Location (40, 15)
	Distance between 2.0
			Node 67
		Load 0.0
		Time 111.0
		Delay 0.0
			Membership 1
			Time Window [111, 162]
			Load at node -40
			Service time at node 10
			Location (42, 15)
	Distance between 3.0
			Node 30
		Load 10.0
		Time 124.0
		Delay 0.0
			Membership 1
			Time Window [109, 128]
			Load at node 10
			Service time at node 10
			Location (42, 12)
	Distance between 21.02379604162864
			Node 84
		Load 0.0
		Time 163.0
		Delay 0.0
			Membership 1
			Time Window [163, 173]
			Load at node -10
			Service time at node 10
			Location (23, 3)
	Distance between 49.9799959983992
			Node 109
		Load 0.0
		Time 222.9799959983992
		Delay 0.0
			Membership 1
			Time Window [0, 240]
			Load at node 0
			Service time at node 0
			Location (40, 50)

Vehicle 8 with capacity 200
			Node 0
		Load 0.0
		Time 0.0
		Delay 0.0
			Membership 1
			Time Window [0, 240]
			Load at node 0
			Service time at node 0
			Location (40, 50)
	Distance between 4.242640687119285
			Node 49
		Load 6.0
		Time 74.0
		Delay 0.0
			Membership 1
			Time Window [74, 127]
			Load at node 6
			Service time at node 10
			Location (37, 47)
	Distance between 17.26267650163207
			Node 103
		Load 0.0
		Time 101.26267650163207
		Delay 0.0
			Membership 1
			Time Window [101, 111]
			Load at node -6
			Service time at node 10
			Location (20, 50)
	Distance between 24.698178070456937
			Node 38
		Load 16.0
		Time 135.960854572089
		Delay 0.0
			Membership 1
			Time Window [134, 161]
			Load at node 16
			Service time at node 10
			Location (41, 37)
	Distance between 9.219544457292887
			Node 92
		Load 0.0
		Time 155.1803990293819
		Delay 0.0
			Membership 1
			Time Window [130, 159]
			Load at node -16
			Service time at node 10
			Location (50, 35)
	Distance between 7.0710678118654755
			Node 50
		Load 13.0
		Time 172.25146684124738
		Delay 0.0
			Membership 1
			Time Window [97, 217]
			Load at node 13
			Service time at node 0
			Location (49, 42)
	Distance between 0.0
			Node 104
		Load 0.0
		Time 172.25146684124738
		Delay 0.0
			Membership 1
			Time Window [97, 217]
			Load at node -13
			Service time at node 10
			Location (49, 42)
	Distance between 12.041594578792296
			Node 109
		Load 0.0
		Time 194.29306142003966
		Delay 0.0
			Membership 1
			Time Window [0, 240]
			Load at node 0
			Service time at node 0
			Location (40, 50)

Vehicle 9 with capacity 200
			Node 0
		Load 0.0
		Time 0.0
		Delay 0.0
			Membership 1
			Time Window [0, 240]
			Load at node 0
			Service time at node 0
			Location (40, 50)
	Distance between 14.7648230602334
			Node 51
		Load 14.0
		Time 15.0
		Delay 0.0
			Membership 1
			Time Window [15, 25]
			Load at node 14
			Service time at node 10
			Location (53, 43)
	Distance between 6.708203932499369
			Node 52
		Load 20.0
		Time 31.70820393249937
		Delay 0.0
			Membership 1
			Time Window [20, 140]
			Load at node 6
			Service time at node 10
			Location (56, 37)
	Distance between 13.038404810405298
			Node 36
		Load 37.0
		Time 54.74660874290467
		Delay 0.0
			Membership 1
			Time Window [53, 82]
			Load at node 17
			Service time at node 10
			Location (45, 30)
	Distance between 19.6468827043885
			Node 54
		Load 52.0
		Time 87.0
		Delay 0.0
			Membership 1
			Time Window [87, 97]
			Load at node 15
			Service time at node 10
			Location (26, 35)
	Distance between 5.0990195135927845
			Node 90
		Load 35.0
		Time 102.09901951359278
		Delay 0.0
			Membership 1
			Time Window [25, 145]
			Load at node -17
			Service time at node 10
			Location (25, 30)
	Distance between 7.211102550927978
			Node 105
		Load 21.0
		Time 119.31012206452075
		Delay 0.0
			Membership 1
			Time Window [77, 126]
			Load at node -14
			Service time at node 10
			Location (21, 24)
	Distance between 9.055385138137417
			Node 106
		Load 15.0
		Time 138.36550720265816
		Delay 0.0
			Membership 1
			Time Window [82, 139]
			Load at node -6
			Service time at node 10
			Location (30, 25)
	Distance between 11.180339887498949
			Node 108
		Load 0.0
		Time 159.5458470901571
		Delay 0.0
			Membership 1
			Time Window [151, 161]
			Load at node -15
			Service time at node 10
			Location (20, 20)
	Distance between 36.05551275463989
			Node 109
		Load 0.0
		Time 205.601359844797
		Delay 0.0
			Membership 1
			Time Window [0, 240]
			Load at node 0
			Service time at node 0
			Location (40, 50)

Vehicle 10 with capacity 200
			Node 0
		Load 0.0
		Time 0.0
		Delay 0.0
			Membership 1
			Time Window [0, 240]
			Load at node 0
			Service time at node 0
			Location (40, 50)
	Distance between 30.805843601498726
			Node 2
		Load 30.0
		Time 30.805843601498726
		Delay 0.0
			Membership 1
			Time Window [30, 150]
			Load at node 30
			Service time at node 10
			Location (22, 75)
	Distance between 7.280109889280518
			Node 28
		Load 40.0
		Time 48.08595349077924
		Delay 0.0
			Membership 1
			Time Window [37, 72]
			Load at node 10
			Service time at node 10
			Location (20, 82)
	Distance between 3.0
			Node 56
		Load 10.0
		Time 61.08595349077924
		Delay 0.0
			Membership 1
			Time Window [40, 160]
			Load at node -30
			Service time at node 10
			Location (20, 85)
	Distance between 11.180339887498949
			Node 5
		Load 30.0
		Time 82.26629337827819
		Delay 0.0
			Membership 1
			Time Window [35, 155]
			Load at node 20
			Service time at node 10
			Location (15, 75)
	Distance between 11.40175425099138
			Node 82
		Load 20.0
		Time 103.66804762926957
		Delay 0.0
			Membership 1
			Time Window [99, 109]
			Load at node -10
			Service time at node 10
			Location (6, 68)
	Distance between 25.298221281347036
			Node 32
		Load 36.0
		Time 150.0
		Delay 0.0
			Membership 1
			Time Window [150, 160]
			Load at node 16
			Service time at node 0
			Location (30, 60)
	Distance between 0.0
			Node 86
		Load 20.0
		Time 150.0
		Delay 0.0
			Membership 1
			Time Window [150, 160]
			Load at node -16
			Service time at node 10
			Location (30, 60)
	Distance between 10.0
			Node 59
		Load 0.0
		Time 170.0
		Delay 0.0
			Membership 1
			Time Window [144, 173]
			Load at node -20
			Service time at node 10
			Location (40, 60)
	Distance between 10.0
			Node 109
		Load 0.0
		Time 190.0
		Delay 0.0
			Membership 1
			Time Window [0, 240]
			Load at node 0
			Service time at node 0
			Location (40, 50)

Vehicle 11 with capacity 200
			Node 0
		Load 0.0
		Time 0.0
		Delay 0.0
			Membership 1
			Time Window [0, 240]
			Load at node 0
			Service time at node 0
			Location (40, 50)
	Distance between 27.459060435491963
			Node 42
		Load 8.0
		Time 27.459060435491963
		Delay 0.0
			Membership 1
			Time Window [27, 147]
			Load at node 8
			Service time at node 10
			Location (63, 65)
	Distance between 10.198039027185569
			Node 41
		Load 22.0
		Time 52.0
		Delay 0.0
			Membership 1
			Time Window [52, 107]
			Load at node 14
			Service time at node 10
			Location (65, 55)
	Distance between 16.278820596099706
			Node 95
		Load 8.0
		Time 80.0
		Delay 0.0
			Membership 1
			Time Window [80, 121]
			Load at node -14
			Service time at node 10
			Location (49, 58)
	Distance between 19.235384061671343
			Node 25
		Load 28.0
		Time 109.23538406167134
		Delay 0.0
			Membership 1
			Time Window [92, 121]
			Load at node 20
			Service time at node 10
			Location (58, 75)
	Distance between 15.297058540778355
			Node 31
		Load 44.0
		Time 134.5324426024497
		Delay 0.0
			Membership 1
			Time Window [127, 180]
			Load at node 16
			Service time at node 10
			Location (55, 60)
	Distance between 6.0
			Node 79
		Load 24.0
		Time 150.5324426024497
		Delay 0.0
			Membership 1
			Time Window [87, 207]
			Load at node -20
			Service time at node 10
			Location (55, 54)
	Distance between 6.324555320336759
			Node 96
		Load 16.0
		Time 166.85699792278646
		Delay 0.0
			Membership 1
			Time Window [50, 170]
			Load at node -8
			Service time at node 10
			Location (57, 48)
	Distance between 5.656854249492381
			Node 85
		Load 0.0
		Time 182.51385217227883
		Delay 0.0
			Membership 1
			Time Window [173, 208]
			Load at node -16
			Service time at node 10
			Location (61, 52)
	Distance between 21.095023109728988
			Node 109
		Load 0.0
		Time 213.60887528200783
		Delay 0.0
			Membership 1
			Time Window [0, 240]
			Load at node 0
			Service time at node 0
			Location (40, 50)

Vehicle 15 with capacity 200
			Node 0
		Load 0.0
		Time 0.0
		Delay 0.0
			Membership 1
			Time Window [0, 240]
			Load at node 0
			Service time at node 0
			Location (40, 50)
	Distance between 51.478150704935004
			Node 20
		Load 10.0
		Time 51.478150704935004
		Delay 0.0
			Membership 1
			Time Window [51, 85]
			Load at node 10
			Service time at node 10
			Location (85, 25)
	Distance between 28.178005607210743
			Node 74
		Load 0.0
		Time 89.65615631214575
		Delay 0.0
			Membership 1
			Time Window [85, 95]
			Load at node -10
			Service time at node 10
			Location (60, 12)
	Distance between 17.46424919657298
			Node 12
		Load 20.0
		Time 117.12040550871873
		Delay 0.0
			Membership 1
			Time Window [79, 124]
			Load at node 20
			Service time at node 10
			Location (44, 5)
	Distance between 2.0
			Node 29
		Load 30.0
		Time 129.12040550871873
		Delay 0.0
			Membership 1
			Time Window [64, 184]
			Load at node 10
			Service time at node 10
			Location (42, 5)
	Distance between 2.0
			Node 83
		Load 20.0
		Time 141.12040550871873
		Delay 0.0
			Membership 1
			Time Window [45, 165]
			Load at node -10
			Service time at node 10
			Location (40, 5)
	Distance between 5.0
			Node 66
		Load 0.0
		Time 171.0
		Delay 0.0
			Membership 1
			Time Window [171, 181]
			Load at node -20
			Service time at node 10
			Location (35, 5)
	Distance between 10.44030650891055
			Node 14
		Load 10.0
		Time 191.44030650891057
		Delay 0.0
			Membership 1
			Time Window [128, 194]
			Load at node 10
			Service time at node 0
			Location (38, 15)
	Distance between 0.0
			Node 68
		Load 0.0
		Time 191.44030650891057
		Delay 0.0
			Membership 1
			Time Window [128, 194]
			Load at node -10
			Service time at node 10
			Location (38, 15)
	Distance between 35.05709628591621
			Node 109
		Load 0.0
		Time 236.49740279482677
		Delay 0.0
			Membership 1
			Time Window [0, 240]
			Load at node 0
			Service time at node 0
			Location (40, 50)

Vehicle 16 with capacity 200
			Node 0
		Load 0.0
		Time 0.0
		Delay 0.0
			Membership 1
			Time Window [0, 240]
			Load at node 0
			Service time at node 0
			Location (40, 50)
	Distance between 14.142135623730951
			Node 53
		Load 9.0
		Time 14.142135623730951
		Delay 0.0
			Membership 1
			Time Window [14, 134]
			Load at node 9
			Service time at node 10
			Location (26, 52)
	Distance between 25.0
			Node 107
		Load 0.0
		Time 49.14213562373095
		Delay 0.0
			Membership 1
			Time Window [38, 109]
			Load at node -9
			Service time at node 10
			Location (2, 45)
	Distance between 5.385164807134504
			Node 11
		Load 20.0
		Time 64.52730043086545
		Delay 0.0
			Membership 1
			Time Window [59, 114]
			Load at node 20
			Service time at node 0
			Location (0, 40)
	Distance between 0.0
			Node 65
		Load 0.0
		Time 64.52730043086545
		Delay 0.0
			Membership 1
			Time Window [59, 114]
			Load at node -20
			Service time at node 10
			Location (0, 40)
	Distance between 2.0
			Node 10
		Load 20.0
		Time 76.52730043086545
		Delay 0.0
			Membership 1
			Time Window [68, 78]
			Load at node 20
			Service time at node 10
			Location (2, 40)
	Distance between 18.867962264113206
			Node 47
		Load 33.0
		Time 105.39526269497865
		Delay 0.0
			Membership 1
			Time Window [100, 110]
			Load at node 13
			Service time at node 10
			Location (12, 24)
	Distance between 4.47213595499958
			Node 33
		Load 52.0
		Time 119.86739864997824
		Delay 0.0
			Membership 1
			Time Window [42, 162]
			Load at node 19
			Service time at node 10
			Location (10, 20)
	Distance between 6.324555320336759
			Node 64
		Load 32.0
		Time 136.191953970315
		Delay 0.0
			Membership 1
			Time Window [112, 157]
			Load at node -20
			Service time at node 10
			Location (4, 18)
	Distance between 13.038404810405298
			Node 101
		Load 19.0
		Time 159.2303587807203
		Delay 0.0
			Membership 1
			Time Window [57, 172]
			Load at node -13
			Service time at node 10
			Location (5, 5)
	Distance between 11.180339887498949
			Node 87
		Load 0.0
		Time 180.41069866821925
		Delay 0.0
			Membership 1
			Time Window [172, 182]
			Load at node -19
			Service time at node 10
			Location (15, 10)
	Distance between 47.16990566028302
			Node 109
		Load 0.0
		Time 237.58060432850226
		Delay 0.0
			Membership 1
			Time Window [0, 240]
			Load at node 0
			Service time at node 0
			Location (40, 50)

